<number of tasks>
45

<cycle time>
62

<task times>
1 9
2 9
3 10
4 10
5 17
6 17
7 13
8 13
9 20
10 20
11 10
12 11
13 6
14 22
15 11
16 19
17 12
18 3
19 7
20 4
21 55
22 14
23 27
24 29
25 26
26 6
27 5
28 24
29 4
30 5
31 7
32 4
33 15
34 3
35 7
36 9
37 4
38 7
39 5
40 4
41 21
42 12
43 6
44 5
45 5

<precedence relations>
1,3
1,7
2,4
2,8
3,5
4,6
5,9
6,10
7,9
7,14
8,10
8,14
9,41
10,41
11,13
12,13
12,37
13,14
13,15
14,17
14,25
14,29
14,30
14,31
14,32
15,16
15,18
15,23
15,24
16,19
17,26
17,27
18,19
19,20
19,33
20,21
21,22
22,28
23,33
24,33
25,26
26,38
27,28
27,33
28,38
29,41
30,41
31,41
32,41
33,34
33,35
33,36
34,38
35,40
36,38
37,43
38,40
39,41
40,41
41,42
42,44
42,45

<setup times forward>
1,2:2
1,4:1
1,6:1
1,7:1
1,8:2
1,10:1
1,16:2
1,18:1
1,19:1
1,20:1
1,21:1
1,23:1
1,24:1
1,37:2
1,43:1
2,1:2
2,3:2
2,4:3
2,7:1
2,9:1
2,11:2
2,12:2
2,13:2
2,15:2
2,18:1
2,19:1
2,20:1
2,21:3
2,22:2
2,23:1
2,24:3
2,39:2
2,43:3
3,2:2
3,4:1
3,5:2
3,6:1
3,7:1
3,8:2
3,10:1
3,14:1
3,16:2
3,18:1
3,19:1
3,20:1
3,21:1
3,23:1
3,24:1
3,26:2
3,27:2
3,28:2
3,29:1
3,30:1
3,32:1
3,33:2
3,34:2
3,35:1
3,36:2
3,37:2
3,38:1
3,40:1
3,43:1
4,1:1
4,3:1
4,5:3
4,7:2
4,8:3
4,9:2
4,11:1
4,12:1
4,13:1
4,14:2
4,15:1
4,16:3
4,17:1
4,18:2
4,19:2
4,20:2
4,22:1
4,23:2
4,25:1
4,26:1
4,27:1
4,28:1
4,29:2
4,31:1
4,32:2
4,33:1
4,34:1
4,35:2
4,36:1
4,37:3
4,38:2
4,39:1
4,40:2
5,4:3
5,6:3
5,7:1
5,9:1
5,10:1
5,11:2
5,12:2
5,13:2
5,14:1
5,15:2
5,17:2
5,18:1
5,19:1
5,20:1
5,21:3
5,22:2
5,23:1
5,24:3
5,25:2
5,26:4
5,27:4
5,28:4
5,29:1
5,30:3
5,31:2
5,32:1
5,33:4
5,34:4
5,35:1
5,36:4
5,38:1
5,39:2
5,40:1
5,43:3
6,1:1
6,3:1
6,5:3
6,7:2
6,8:3
6,9:2
6,10:2
6,11:1
6,12:1
6,13:1
6,14:2
6,15:1
6,16:3
6,17:1
6,18:2
6,19:2
6,20:2
6,22:1
6,23:2
6,25:1
6,26:1
6,27:1
6,28:1
6,29:2
6,31:1
6,32:2
6,33:1
6,34:1
6,35:2
6,36:1
6,37:3
6,38:2
6,39:1
6,40:2
7,2:1
7,3:1
7,4:2
7,5:1
7,6:2
7,8:1
7,11:1
7,12:1
7,13:1
7,15:1
7,16:1
7,21:2
7,22:1
7,24:2
7,37:1
7,39:1
7,43:2
8,1:2
8,3:2
8,4:3
8,6:3
8,7:1
8,9:1
8,10:1
8,11:2
8,12:2
8,13:2
8,14:1
8,15:2
8,18:1
8,19:1
8,20:1
8,21:3
8,22:2
8,23:1
8,24:3
8,39:2
8,43:3
9,2:1
9,4:2
9,6:2
9,8:1
9,11:1
9,12:1
9,13:1
9,15:1
9,16:1
9,17:1
9,21:2
9,22:1
9,24:2
9,25:1
9,26:3
9,27:3
9,28:3
9,30:2
9,31:1
9,33:3
9,34:3
9,36:3
9,37:1
9,39:1
9,43:2
10,1:1
10,3:1
10,5:1
10,11:1
10,12:1
10,13:1
10,15:1
10,16:1
10,17:1
10,21:2
10,22:1
10,24:2
10,25:1
10,26:3
10,27:3
10,28:3
10,30:2
10,31:1
10,33:3
10,34:3
10,36:3
10,37:1
10,39:1
10,43:2
11,2:2
11,4:1
11,5:2
11,6:1
11,7:1
11,8:2
11,9:1
11,10:1
11,37:2
11,43:1
12,2:2
12,4:1
12,5:2
12,6:1
12,7:1
12,8:2
12,9:1
12,10:1
12,37:2
13,2:2
13,4:1
13,5:2
13,6:1
13,7:1
13,8:2
13,9:1
13,10:1
13,14:1
13,37:2
13,43:1
14,3:1
14,4:2
14,5:1
14,6:2
14,15:1
14,16:1
14,17:1
14,21:2
14,22:1
14,24:2
14,25:1
14,30:2
14,31:1
14,37:1
14,39:1
14,43:2
15,2:2
15,4:1
15,5:2
15,6:1
15,7:1
15,8:2
15,9:1
15,10:1
15,14:1
15,16:2
15,18:1
15,23:1
15,24:1
15,26:2
15,27:2
15,29:1
15,30:1
15,32:1
15,37:2
15,43:1
16,1:2
16,3:2
16,4:3
16,6:3
16,7:1
16,9:1
16,10:1
16,14:1
16,17:2
16,18:1
16,19:1
16,23:1
16,24:3
16,25:2
16,26:4
16,27:4
16,29:1
16,30:3
16,31:2
16,32:1
16,39:2
16,43:3
17,4:1
17,5:2
17,6:1
17,9:1
17,10:1
17,16:2
17,18:1
17,19:1
17,20:1
17,21:1
17,23:1
17,24:1
17,26:2
17,27:2
17,29:1
17,30:1
17,32:1
17,37:2
17,43:1
18,1:1
18,2:1
18,3:1
18,4:2
18,5:1
18,6:2
18,8:1
18,16:1
18,17:1
18,24:2
18,25:1
18,26:3
18,27:3
18,30:2
18,31:1
18,37:1
18,39:1
18,43:2
19,1:1
19,2:1
19,3:1
19,4:2
19,5:1
19,6:2
19,8:1
19,17:1
19,24:2
19,25:1
19,26:3
19,27:3
19,30:2
19,31:1
19,33:3
19,37:1
19,39:1
19,43:2
20,1:1
20,2:1
20,3:1
20,4:2
20,5:1
20,6:2
20,8:1
20,17:1
20,21:2
20,24:2
20,25:1
20,26:3
20,27:3
20,30:2
20,31:1
20,33:3
20,34:3
20,36:3
20,37:1
20,39:1
20,43:2
21,1:1
21,2:3
21,3:1
21,5:3
21,7:2
21,8:3
21,9:2
21,10:2
21,14:2
21,17:1
21,22:1
21,23:2
21,25:1
21,26:1
21,27:1
21,29:2
21,31:1
21,32:2
21,33:1
21,34:1
21,35:2
21,36:1
21,37:3
21,39:1
22,2:2
22,4:1
22,5:2
22,6:1
22,7:1
22,8:2
22,9:1
22,10:1
22,14:1
22,23:1
22,24:1
22,26:2
22,27:2
22,28:2
22,29:1
22,30:1
22,32:1
22,33:2
22,34:2
22,35:1
22,36:2
22,37:2
22,43:1
23,1:1
23,2:1
23,3:1
23,4:2
23,5:1
23,6:2
23,8:1
23,16:1
23,17:1
23,21:2
23,22:1
23,24:2
23,25:1
23,26:3
23,27:3
23,28:3
23,30:2
23,31:1
23,33:3
23,37:1
23,39:1
23,43:2
24,1:1
24,2:3
24,3:1
24,5:3
24,7:2
24,8:3
24,9:2
24,10:2
24,14:2
24,16:3
24,17:1
24,18:2
24,19:2
24,20:2
24,22:1
24,23:2
24,25:1
24,26:1
24,27:1
24,28:1
24,29:2
24,31:1
24,32:2
24,33:1
24,37:3
24,39:1
25,4:1
25,5:2
25,6:1
25,9:1
25,10:1
25,16:2
25,18:1
25,19:1
25,20:1
25,21:1
25,23:1
25,24:1
25,26:2
25,27:2
25,28:2
25,29:1
25,30:1
25,32:1
25,33:2
25,34:2
25,35:1
25,36:2
25,37:2
25,43:1
26,3:2
26,4:1
26,5:4
26,6:1
26,9:3
26,10:3
26,15:2
26,16:4
26,18:3
26,19:3
26,20:3
26,21:1
26,22:2
26,23:3
26,24:1
26,29:3
26,30:1
26,31:2
26,32:3
26,35:3
26,37:4
26,38:3
26,39:2
26,43:1
27,3:2
27,4:1
27,5:4
27,6:1
27,9:3
27,10:3
27,15:2
27,16:4
27,18:3
27,19:3
27,20:3
27,21:1
27,22:2
27,23:3
27,24:1
27,25:2
27,29:3
27,30:1
27,31:2
27,32:3
27,37:4
27,39:2
27,43:1
28,3:2
28,4:1
28,5:4
28,6:1
28,9:3
28,10:3
28,23:3
28,24:1
28,25:2
28,29:3
28,30:1
28,31:2
28,32:3
28,35:3
28,37:4
28,38:3
28,39:2
28,43:1
29,3:1
29,4:2
29,5:1
29,6:2
29,15:1
29,16:1
29,17:1
29,21:2
29,22:1
29,24:2
29,25:1
29,26:3
29,27:3
29,28:3
29,30:2
29,31:1
29,33:3
29,34:3
29,36:3
29,37:1
29,39:1
29,43:2
30,3:1
30,5:3
30,9:2
30,10:2
30,15:1
30,16:3
30,17:1
30,18:2
30,19:2
30,20:2
30,22:1
30,23:2
30,25:1
30,26:1
30,27:1
30,28:1
30,29:2
30,31:1
30,32:2
30,33:1
30,34:1
30,35:2
30,36:1
30,37:3
30,38:2
30,39:1
30,40:2
30,41:2
31,4:1
31,5:2
31,6:1
31,9:1
31,10:1
31,16:2
31,18:1
31,19:1
31,20:1
31,21:1
31,23:1
31,24:1
31,26:2
31,27:2
31,28:2
31,29:1
31,30:1
31,32:1
31,33:2
31,34:2
31,35:1
31,36:2
31,37:2
31,38:1
31,40:1
31,41:1
31,43:1
32,3:1
32,4:2
32,5:1
32,6:2
32,15:1
32,16:1
32,17:1
32,21:2
32,22:1
32,24:2
32,25:1
32,26:3
32,27:3
32,28:3
32,30:2
32,31:1
32,33:3
32,34:3
32,36:3
32,37:1
32,39:1
32,43:2
33,3:2
33,4:1
33,5:4
33,6:1
33,9:3
33,10:3
33,20:3
33,21:1
33,22:2
33,25:2
33,29:3
33,30:1
33,31:2
33,32:3
33,35:3
33,37:4
33,39:2
33,43:1
34,3:2
34,4:1
34,5:4
34,6:1
34,9:3
34,10:3
34,20:3
34,21:1
34,22:2
34,25:2
34,29:3
34,30:1
34,31:2
34,32:3
34,35:3
34,37:4
34,38:3
34,39:2
34,43:1
35,3:1
35,4:2
35,5:1
35,6:2
35,21:2
35,22:1
35,25:1
35,26:3
35,28:3
35,30:2
35,31:1
35,34:3
35,36:3
35,37:1
35,39:1
35,43:2
36,3:2
36,4:1
36,5:4
36,6:1
36,9:3
36,10:3
36,20:3
36,21:1
36,22:2
36,25:2
36,29:3
36,30:1
36,31:2
36,32:3
36,35:3
36,37:4
36,38:3
36,39:2
36,43:1
37,1:2
37,3:2
37,4:3
37,6:3
37,7:1
37,9:1
37,10:1
37,11:2
37,13:2
37,14:1
37,15:2
37,17:2
37,18:1
37,19:1
37,20:1
37,21:3
37,22:2
37,23:1
37,24:3
37,25:2
37,26:4
37,27:4
37,28:4
37,29:1
37,30:3
37,31:2
37,32:1
37,33:4
37,34:4
37,35:1
37,36:4
37,38:1
37,39:2
37,40:1
37,41:1
37,42:1
37,43:3
37,44:1
37,45:1
38,3:1
38,4:2
38,5:1
38,6:2
38,30:2
38,31:1
38,37:1
38,39:1
38,43:2
39,2:2
39,4:1
39,5:2
39,6:1
39,7:1
39,8:2
39,9:1
39,10:1
39,14:1
39,16:2
39,18:1
39,19:1
39,20:1
39,21:1
39,23:1
39,24:1
39,26:2
39,27:2
39,28:2
39,29:1
39,30:1
39,32:1
39,33:2
39,34:2
39,35:1
39,36:2
39,37:2
39,38:1
39,40:1
39,41:1
39,43:1
40,3:1
40,4:2
40,5:1
40,6:2
40,30:2
40,31:1
40,37:1
40,39:1
40,43:2
41,37:1
41,43:2
42,37:1
42,43:2
43,1:1
43,2:3
43,3:1
43,5:3
43,7:2
43,8:3
43,9:2
43,10:2
43,11:1
43,13:1
43,14:2
43,15:1
43,16:3
43,17:1
43,18:2
43,19:2
43,20:2
43,22:1
43,23:2
43,25:1
43,26:1
43,27:1
43,28:1
43,29:2
43,31:1
43,32:2
43,33:1
43,34:1
43,35:2
43,36:1
43,38:2
43,39:1
43,40:2
43,41:2
43,42:2
43,44:2
43,45:2
44,37:1
44,43:2
45,37:1
45,43:2

<setup times backward>
1,4:1
1,6:1
1,21:1
1,24:1
1,43:1
2,1:2
2,3:2
2,7:1
2,9:1
2,11:2
2,12:2
2,13:2
2,15:2
2,18:1
2,19:1
2,20:1
2,21:3
2,22:2
2,23:1
2,24:3
2,39:2
2,43:3
3,4:1
3,6:1
3,21:1
3,24:1
3,26:2
3,27:2
3,28:2
3,30:1
3,33:2
3,34:2
3,36:2
3,43:1
4,26:1
4,27:1
4,28:1
4,33:1
4,34:1
4,36:1
5,1:2
5,3:2
5,4:3
5,6:3
5,7:1
5,10:1
5,11:2
5,12:2
5,13:2
5,14:1
5,15:2
5,17:2
5,18:1
5,19:1
5,20:1
5,21:3
5,22:2
5,23:1
5,24:3
5,25:2
5,26:4
5,27:4
5,28:4
5,29:1
5,30:3
5,31:2
5,32:1
5,33:4
5,34:4
5,35:1
5,36:4
5,38:1
5,39:2
5,40:1
5,43:3
6,26:1
6,27:1
6,28:1
6,33:1
6,34:1
6,36:1
7,1:1
7,3:1
7,4:2
7,6:2
7,11:1
7,12:1
7,13:1
7,15:1
7,21:2
7,22:1
7,24:2
7,39:1
7,43:2
8,1:2
8,3:2
8,4:3
8,6:3
8,7:1
8,9:1
8,11:2
8,12:2
8,13:2
8,15:2
8,18:1
8,19:1
8,20:1
8,21:3
8,22:2
8,23:1
8,24:3
8,39:2
8,43:3
9,1:1
9,3:1
9,4:2
9,6:2
9,11:1
9,12:1
9,13:1
9,15:1
9,17:1
9,21:2
9,22:1
9,24:2
9,25:1
9,26:3
9,27:3
9,28:3
9,30:2
9,31:1
9,33:3
9,34:3
9,36:3
9,39:1
9,43:2
10,1:1
10,3:1
10,4:2
10,6:2
10,11:1
10,12:1
10,13:1
10,15:1
10,17:1
10,21:2
10,22:1
10,24:2
10,25:1
10,26:3
10,27:3
10,28:3
10,30:2
10,31:1
10,33:3
10,34:3
10,36:3
10,39:1
10,43:2
11,4:1
11,6:1
11,43:1
12,4:1
12,6:1
13,4:1
13,6:1
13,43:1
14,1:1
14,3:1
14,4:2
14,6:2
14,11:1
14,12:1
14,13:1
14,15:1
14,21:2
14,22:1
14,24:2
14,39:1
14,43:2
15,4:1
15,6:1
15,26:2
15,27:2
15,30:1
15,43:1
16,1:2
16,3:2
16,4:3
16,6:3
16,7:1
16,9:1
16,10:1
16,11:2
16,12:2
16,13:2
16,14:1
16,15:2
16,17:2
16,18:1
16,23:1
16,24:3
16,25:2
16,26:4
16,27:4
16,29:1
16,30:3
16,31:2
16,32:1
16,39:2
16,43:3
17,4:1
17,6:1
17,21:1
17,24:1
17,30:1
17,43:1
18,1:1
18,3:1
18,4:2
18,6:2
18,11:1
18,12:1
18,13:1
18,15:1
18,17:1
18,24:2
18,25:1
18,26:3
18,27:3
18,30:2
18,31:1
18,39:1
18,43:2
19,1:1
19,3:1
19,4:2
19,6:2
19,11:1
19,12:1
19,13:1
19,15:1
19,17:1
19,24:2
19,25:1
19,26:3
19,27:3
19,30:2
19,31:1
19,39:1
19,43:2
20,1:1
20,3:1
20,4:2
20,6:2
20,11:1
20,12:1
20,13:1
20,15:1
20,17:1
20,24:2
20,25:1
20,26:3
20,27:3
20,30:2
20,31:1
20,33:3
20,34:3
20,36:3
20,39:1
20,43:2
21,26:1
21,27:1
21,33:1
21,34:1
21,36:1
22,4:1
22,6:1
22,21:1
22,24:1
22,26:2
22,27:2
22,30:1
22,33:2
22,34:2
22,36:2
22,43:1
23,1:1
23,3:1
23,4:2
23,6:2
23,11:1
23,12:1
23,13:1
23,15:1
23,17:1
23,21:2
23,22:1
23,24:2
23,25:1
23,26:3
23,27:3
23,28:3
23,30:2
23,31:1
23,39:1
23,43:2
24,26:1
24,27:1
24,28:1
25,4:1
25,6:1
25,21:1
25,24:1
25,27:2
25,28:2
25,30:1
25,33:2
25,34:2
25,36:2
25,43:1
29,1:1
29,3:1
29,4:2
29,6:2
29,11:1
29,12:1
29,13:1
29,15:1
29,17:1
29,21:2
29,22:1
29,24:2
29,25:1
29,26:3
29,27:3
29,28:3
29,30:2
29,31:1
29,33:3
29,34:3
29,36:3
29,39:1
29,43:2
30,26:1
30,27:1
30,28:1
30,33:1
30,34:1
30,36:1
31,4:1
31,6:1
31,21:1
31,24:1
31,26:2
31,27:2
31,28:2
31,30:1
31,33:2
31,34:2
31,36:2
31,43:1
32,1:1
32,3:1
32,4:2
32,6:2
32,11:1
32,12:1
32,13:1
32,15:1
32,17:1
32,21:2
32,22:1
32,24:2
32,25:1
32,26:3
32,27:3
32,28:3
32,30:2
32,31:1
32,33:3
32,34:3
32,36:3
32,39:1
32,43:2
35,1:1
35,3:1
35,4:2
35,6:2
35,11:1
35,12:1
35,13:1
35,15:1
35,17:1
35,21:2
35,22:1
35,24:2
35,25:1
35,26:3
35,27:3
35,28:3
35,30:2
35,31:1
35,33:3
35,34:3
35,36:3
35,39:1
35,43:2
37,1:2
37,3:2
37,4:3
37,6:3
37,7:1
37,9:1
37,10:1
37,11:2
37,12:2
37,13:2
37,14:1
37,15:2
37,17:2
37,18:1
37,19:1
37,20:1
37,21:3
37,22:2
37,23:1
37,24:3
37,25:2
37,26:4
37,27:4
37,28:4
37,29:1
37,30:3
37,31:2
37,32:1
37,33:4
37,34:4
37,35:1
37,36:4
37,38:1
37,39:2
37,40:1
37,41:1
37,42:1
37,44:1
37,45:1
38,1:1
38,3:1
38,4:2
38,6:2
38,11:1
38,12:1
38,13:1
38,15:1
38,17:1
38,21:2
38,22:1
38,24:2
38,25:1
38,26:3
38,27:3
38,28:3
38,30:2
38,31:1
38,33:3
38,34:3
38,36:3
38,39:1
38,43:2
39,4:1
39,6:1
39,21:1
39,24:1
39,26:2
39,27:2
39,28:2
39,30:1
39,33:2
39,34:2
39,36:2
39,43:1
40,1:1
40,3:1
40,4:2
40,6:2
40,11:1
40,12:1
40,13:1
40,15:1
40,17:1
40,21:2
40,22:1
40,24:2
40,25:1
40,26:3
40,27:3
40,28:3
40,30:2
40,31:1
40,33:3
40,34:3
40,36:3
40,39:1
40,43:2
41,1:1
41,3:1
41,4:2
41,6:2
41,11:1
41,12:1
41,13:1
41,15:1
41,17:1
41,21:2
41,22:1
41,24:2
41,25:1
41,26:3
41,27:3
41,28:3
41,30:2
41,31:1
41,33:3
41,34:3
41,36:3
41,39:1
41,43:2
42,1:1
42,3:1
42,4:2
42,6:2
42,11:1
42,12:1
42,13:1
42,15:1
42,17:1
42,21:2
42,22:1
42,24:2
42,25:1
42,26:3
42,27:3
42,28:3
42,30:2
42,31:1
42,33:3
42,34:3
42,36:3
42,39:1
42,43:2
43,26:1
43,27:1
43,28:1
43,33:1
43,34:1
43,36:1
44,1:1
44,3:1
44,4:2
44,6:2
44,11:1
44,12:1
44,13:1
44,15:1
44,17:1
44,21:2
44,22:1
44,24:2
44,25:1
44,26:3
44,27:3
44,28:3
44,30:2
44,31:1
44,33:3
44,34:3
44,36:3
44,39:1
44,43:2
45,1:1
45,3:1
45,4:2
45,6:2
45,11:1
45,12:1
45,13:1
45,15:1
45,17:1
45,21:2
45,22:1
45,24:2
45,25:1
45,26:3
45,27:3
45,28:3
45,30:2
45,31:1
45,33:3
45,34:3
45,36:3
45,39:1
45,43:2

<end>

<optimal SALBP-1 value>
9


<rand seed>
467321153

<Lower Bounds>
Lm1=9
Lms1=9
Lm2=1
Lm3=4
Lm4=9
Best=9

<Optimal Stations (Iterations: 10)>
11
